GPU_version/outputs/rc106.out
Total number of lines in the file: 110
Total number of nodes including depot: 101
Customer 1: (40, 50), Demand: 0, Time Window: [0, 240], Service Time: 0
Customer 2: (25, 85), Demand: 20, Time Window: [130, 190], Service Time: 10
Customer 3: (22, 75), Demand: 30, Time Window: [35, 95], Service Time: 10
Customer 4: (22, 85), Demand: 10, Time Window: [94, 154], Service Time: 10
Customer 5: (20, 80), Demand: 40, Time Window: [126, 186], Service Time: 10
calling MST kernel
Post Processing Route
Post 2 opt Processing Route
2-opt between 7 and 8 improved cost from 2200.07 to 2196.65
Elapsed time: 0.743113 seconds
Final Route: 
Route #1: 80 91 
Route #2: 92 95 62 67 50 34 
Route #3: 31 29 27 26 
Route #4: 28 30 32 
Route #5: 33 56 
Route #6: 64 84 85 51 
Route #7: 63 76 89 
Route #8: 94 93 
Route #9: 71 96 54 
Route #10: 81 61 68 
Route #11: 72 41 39 38 37 
Route #12: 36 35 
Route #13: 40 42 44 43 
Route #14: 90 
Route #15: 65 66 
Route #16: 83 82 99 52 57 86 74 
Route #17: 87 59 97 58 
Route #18: 75 77 25 
Route #19: 23 21 48 
Route #20: 18 19 49 20 22 24 
Route #21: 69 98 53 88 60 
Route #22: 78 73 79 
Route #23: 7 6 2 8 46 4 
Route #24: 45 5 3 1 
Route #25: 12 14 47 15 16 17 
Route #26: 11 10 9 13 
Route #27: 55 100 70 
Route #28: Total Distance: 2200.07
Final route is valid
