outputs/rc106.txt.out
filename: RC106
Vehicles: 25, Capacity: 200
Total customers : 101
No of routes: 24
Route #1: 90
Route #2: 69 98 53 88 60 55 100 70
Route #3: 78 73 79
Route #4: 2 6 7 8 46 4
Route #5: 45 5 3 1
Route #6: 12 11 10 9 13
Route #7: 14 47 15 16 17
Route #8: 65 82 99 52 86 74
Route #9: 87 59 97 58 77 25
Route #10: 23 21 48
Route #11: 18 19 49 20 22 24
Route #12: 75 57 66
Route #13: 83 91 80
Route #14: 92 95 84 85 51
Route #15: 63 76 89 56
Route #16: 64 67 62 50 34
Route #17: 31 29 27 26
Route #18: 28 30 32
Route #19: 94 33 93
Route #20: 96 71 54
Route #21: 81 61 68
Route #22: 72 41 39 38 37
Route #23: 36 35
Route #24: 42 44 43 40
Cost 2094
